!   File created by the GAMESS Input Deck Generator Plugin for Avogadro
 $BASIS GBASIS=STO NGAUSS=3 $END
 $CONTRL SCFTYP=RHF RUNTYP=OPTIMIZE NZVAR=1 MULT=1 ICHARG=1 $END
 $STATPT  HESS=calc ihrep=5 $END
 $FORCE NVIB=2 $END
 $STATPT OPTTOL=0.0005 NSTEP=50 hssend=.t. $END
 $ZMAT DLC=.T. AUTO=.T. NONVDW(1)=3,9 $END
 $ZMAT IFZMAT(1)=1,3,9 fvalue(1)=1.50 $END

 $DATA 
Title
C1
C     6.0     1.08280003     0.00675000    -0.03075000
C     6.0     2.57947993    -0.06600000     0.05253000
N     7.0     3.17040992    -0.85904002     0.87835997
Cl    17.0     3.54503989     0.95052999    -1.00388002
H     1.0     0.59873003    -0.68804997     0.68788999
H     1.0     0.75892001    -0.26385000    -1.05719995
H     1.0     0.74906999     1.04066002     0.19520999
H     1.0     2.62172008    -1.46261001     1.51469004
H     1.0     4.67446995    -1.37523997     0.82639003
 $END
