!File created by the GAMESS Input Deck Generator Plugin for Avogadro
 $BASIS GBASIS=STO NGAUSS=3 $END
 $CONTRL SCFTYP=RHF RUNTYP=SADPOINT ICHARG=-1 $END
 $STATPT  HESS=calc ihrep=5 $END
 $FORCE NVIB=2 $END
 $STATPT OPTTOL=0.0005 NSTEP=50 hssend=.t. $END
 $ZMAT DLC=.T. AUTO=.T. NONVDW(1)=1,2,2,3,3,4,3,5,3,9 $END
!$ZMAT IFZMAT(1)=1,3,9 fvalue(1)=2.00,2.00 $END


 $DATA 
Title
C1
C     6.0     1.16573179    -0.02006579    -0.09334900
C     6.0     2.69111252    -0.40090543    -0.35256091
N     7.0     3.20831943    -0.71447140     1.06789064
Cl    17.0     3.54361868     1.34013844    -0.63592786
H     1.0     0.82660121    -0.29747957     0.90351403
H     1.0     0.52244371    -0.54926461    -0.79765922
H     1.0     0.94897896     1.03681898    -0.21339175
H     1.0     2.73858285    -1.61758494     1.29199588
H     1.0     4.18980837    -1.03004837     0.92645228
 $END
