!File created by the GAMESS Input Deck Generator Plugin for Avogadro
 $BASIS GBASIS=STO NGAUSS=3 $END
 $CONTRL SCFTYP=RHF RUNTYP=SADPOINT ICHARG=-1 $END
 $STATPT  HESS=calc ihrep=5 $END
 $FORCE NVIB=2 $END
 $STATPT OPTTOL=0.0005 NSTEP=50 hssend=.t. $END
 $ZMAT DLC=.T. AUTO=.T. NONVDW(1)=1,2,2,3,3,4,3,5,3,9 $END
!$ZMAT IFZMAT(1)=1,3,9 fvalue(1)=2.00,2.00 $END


 $DATA 
Title
C1
C     6.0     1.05632699     0.03187611    -0.03538517
C     6.0     2.58195996    -0.07009807     0.04547698
N     7.0     3.19353414    -0.87747049     0.85952365
Cl    17.0     3.54233813     0.93700701    -0.99388993
H     1.0     0.59189701    -0.64971799     0.67347401
H     1.0     0.74763352    -0.21241535    -1.05278778
H     1.0     0.76595366     1.06049740     0.18267374
H     1.0     2.66605425    -1.50035000     1.50255263
H     1.0     4.68949986    -0.97219127     0.91532600
 $END
