!File created by the GAMESS Input Deck Generator Plugin for Avogadro
 $BASIS GBASIS=STO NGAUSS=3 $END
 $CONTRL SCFTYP=RHF RUNTYP=IRC ICHARG=-1 $END
 $STATPT  HESS=READ ihrep=5 $END
 $irc npoint=100 saddle=.t. tsengy=.t. forwrd=.t. opttol=0.0005 stride=0.1 $end

 $DATA 
Title
C1
C     6.0     1.16573179    -0.02006579    -0.09334900
C     6.0     2.69111252    -0.40090543    -0.35256091
N     7.0     3.20831943    -0.71447140     1.06789064
Cl    17.0     3.54361868     1.34013844    -0.63592786
H     1.0     0.82660121    -0.29747957     0.90351403
H     1.0     0.52244371    -0.54926461    -0.79765922
H     1.0     0.94897896     1.03681898    -0.21339175
H     1.0     2.73858285    -1.61758494     1.29199588
H     1.0     4.18980837    -1.03004837     0.92645228
 $END

 $HESS
ENERGY IS     -585.8277100311 E(NUC) IS      151.1413480842
 1  1 6.37262692E-01 2.84472738E-02 3.81274109E-02-2.14674899E-01 1.55317454E-02
 1  2-5.64336101E-04-3.00513358E-02 9.96370225E-03 5.78362138E-03-1.67063037E-02
 1  3 5.67669871E-03 6.69569800E-03-1.06222152E-01-2.72368241E-02 9.03075692E-02
 1  4-1.88300690E-01-9.69481510E-02-1.26405668E-01-7.96636790E-02 6.09869559E-02
 1  5-9.17401602E-03 4.15734482E-05 2.23912813E-04 4.50565889E-04-1.68507668E-03
 1  6 3.35491326E-03-5.22069563E-03
 2  1 2.84472738E-02 8.08867988E-01-1.76441491E-02 5.54726488E-02-1.01213297E-01
 2  2-1.22708753E-03 7.01281977E-03-2.70536039E-03-8.71373261E-03-2.97974638E-02
 2  3 1.17403406E-03 8.65227429E-03-3.52594360E-02-1.04361804E-01 8.74924847E-02
 2  4-1.10184165E-01-1.66694785E-01-1.11309141E-01 8.15564912E-02-4.36728136E-01
 2  5 3.89475382E-02 8.41618159E-04 5.44528445E-04 1.25138244E-04 1.91012066E-03
 2  6 1.11668400E-03 3.67734239E-03
 3  1 3.81274109E-02-1.76441491E-02 8.06183686E-01 6.17683905E-02-1.21496659E-02
 3  2-1.02768806E-01-4.94836979E-02 1.61696732E-02 7.90609729E-03 6.47717772E-04
 3  3-4.33929023E-03-7.51536730E-05 1.09316491E-01 8.20841481E-02-3.84868579E-01
 3  4-1.42350948E-01-1.10886465E-01-2.33346394E-01-1.28100270E-02 4.35523324E-02
 3  5-8.46825098E-02 1.07701341E-04-3.03880056E-04 9.44287155E-04-5.32315880E-03
 3  6 3.51718083E-03-9.29273229E-03
 4  1-2.14674899E-01 5.54726488E-02 6.17683905E-02 4.08526571E-01-1.75189001E-02
 4  2 3.67629863E-02-1.18724151E-01 6.45974356E-03-6.87294216E-02-4.56216495E-02
 4  3-4.87716238E-02-1.06272660E-02-9.00037866E-03 3.71408111E-03 1.09662804E-03
 4  4-1.31482851E-02 5.27760198E-03 3.43371994E-03-3.09901430E-03-1.03935135E-03
 4  5 1.34169960E-03 6.70893316E-03-1.11200685E-02 2.20908962E-02-1.09671651E-02
 4  6 7.52581098E-03-4.71380220E-02
 5  1 1.55317454E-02-1.01213297E-01-1.21496659E-02-1.75189001E-02 2.73427891E-01
 5  2-2.88074572E-02-8.76393996E-03-6.19564043E-02 1.22122173E-02-1.88328212E-02
 5  3-1.06448460E-01-2.04273871E-02-5.23256924E-03 1.39358920E-03-4.97067109E-04
 5  4-1.39463901E-02 7.78668842E-03 5.56266369E-03 3.56943828E-02-2.34688874E-03
 5  5-4.23814394E-03 1.05341496E-02-9.69553548E-03 3.72466653E-02 2.53440267E-03
 5  6-9.47424090E-04 1.10979976E-02
 6  1-5.64336101E-04-1.22708753E-03-1.02768806E-01 3.67629863E-02-2.88074572E-02
 6  2 3.98333772E-01-5.78567555E-02 4.19452126E-02-2.80908077E-01 1.62501674E-03
 6  3 1.04114258E-02-2.54492497E-02 3.35972768E-02-7.45359519E-03-4.88854251E-04
 6  4-2.18417447E-02 8.08965182E-03 9.49749624E-03-3.46533481E-03 8.18944210E-06
 6  5 6.76403694E-04-1.48511272E-03-1.48921800E-02-8.65731487E-03 1.32281260E-02
 6  6-8.07421007E-03 9.76456283E-03
 7  1-3.00513358E-02 7.01281977E-03-4.94836979E-02-1.18724151E-01-8.76393996E-03
 7  2-5.78567555E-02 7.84431047E-01 3.22308426E-02-2.80026247E-02 3.26886590E-03
 7  3-6.62939952E-03 1.86629419E-02 3.09319120E-03 4.22527716E-04-1.96888899E-03
 7  4-6.48909054E-03 2.97365554E-03 7.72790838E-04-2.43640801E-03-2.80581811E-04
 7  5-2.40319385E-04-1.72535528E-01-2.01455839E-01 1.18061738E-02-4.60556563E-01
 7  6 1.74489805E-01 1.06310449E-01
 8  1 9.96370225E-03-2.70536039E-03 1.61696732E-02 6.45974356E-03-6.19564043E-02
 8  2 4.19452126E-02 3.22308426E-02 5.87709042E-01-1.53991912E-01 3.03856288E-03
 8  3-1.43894537E-02 3.59713032E-02-3.37289169E-03 6.19228191E-04 1.61267931E-03
 8  4 4.92515058E-04-9.39243656E-04-5.13455624E-04 4.40146248E-04-3.47532643E-04
 8  5-5.85602278E-04-1.39097827E-01-3.96816540E-01 5.87262842E-02 8.98452237E-02
 8  6-1.11174223E-01 6.66455795E-04
 9  1 5.78362138E-03-8.71373261E-03 7.90609729E-03-6.87294216E-02 1.22122173E-02
 9  2-2.80908077E-01-2.80026247E-02-1.53991912E-01 4.02926620E-01 8.50500158E-03
 9  3 2.16785989E-02-3.32687874E-03-3.19346826E-03 9.99813623E-04 2.89895219E-03
 9  4-6.74206605E-04 1.52711019E-04 8.77817613E-04 2.02482784E-03-5.64802103E-04
 9  5-6.34603826E-04 3.12183812E-02 1.28158938E-01-5.66424384E-02 5.30679131E-02
 9  6 6.79539332E-05-7.30970381E-02
10  1-1.67063037E-02-2.97974638E-02 6.47717772E-04-4.56216495E-02-1.88328212E-02
10  2 1.62501674E-03 3.26886590E-03 3.03856288E-03 8.50500158E-03 6.48120148E-02
10  3 5.29508355E-02-1.30351309E-02-2.67906156E-03-1.39530213E-03 2.32764853E-06
10  4-5.17091127E-03-3.42446686E-04 1.75776680E-03-1.86599955E-03-4.02309495E-03
10  5 1.28465862E-03 2.51886661E-03 5.61671112E-04-1.05899175E-03 1.44400533E-03
10  6-2.15985319E-03 2.71648016E-04
11  1 5.67669871E-03 1.17403406E-03-4.33929023E-03-4.87716238E-02-1.06448460E-01
11  2 1.04114258E-02-6.62939952E-03-1.43894537E-02 2.16785989E-02 5.29508355E-02
11  3 1.21672269E-01-3.11838302E-02-3.15950328E-04-3.01991843E-04-6.24904469E-04
11  4-3.74168541E-03 1.10684198E-03 9.31071699E-04-5.28922787E-03 3.36457549E-03
11  5 1.15276777E-03 5.06346954E-03-3.42608462E-03 2.81292107E-03 1.05690159E-03
11  6-2.75168405E-03-8.38984544E-04
12  1 6.69569800E-03 8.65227429E-03-7.51536730E-05-1.06272660E-02-2.04273871E-02
12  2-2.54492497E-02 1.86629419E-02 3.59713032E-02-3.32687874E-03-1.30351309E-02
12  3-3.11838302E-02 3.48602510E-02 9.19999609E-04-4.85986888E-04 1.99996432E-05
12  4 1.00921534E-03 5.89193423E-04-4.80504329E-04-8.18148349E-04 1.15250202E-03
12  5 8.45105467E-04-2.49709835E-03 6.22078407E-03-6.85641619E-03-3.10198381E-04
12  6-4.88739162E-04 4.62637908E-04
13  1-1.06222152E-01-3.52594360E-02 1.09316491E-01-9.00037866E-03-5.23256924E-03
13  2 3.35972768E-02 3.09319120E-03-3.37289169E-03-3.19346826E-03-2.67906156E-03
13  3-3.15950328E-04 9.19999609E-04 1.04011973E-01 3.05748070E-02-1.03407266E-01
13  4 8.55620961E-03 9.36653564E-03-2.80581457E-02 2.16569270E-03 3.78669584E-03
13  5-1.02619714E-02-1.02324288E-03 1.02698607E-03 6.62952747E-04 1.09779347E-03
13  6-5.74246130E-04 4.24270889E-04
14  1-2.72368241E-02-1.04361804E-01 8.20841481E-02 3.71408111E-03 1.39358920E-03
14  2-7.45359519E-03 4.22527716E-04 6.19228191E-04 9.99813623E-04-1.39530213E-03
14  3-3.01991843E-04-4.85986888E-04 3.05748070E-02 9.75900805E-02-9.45591464E-02
14  4 8.73671886E-03 8.94731222E-03-2.70922669E-02-1.56524370E-02-4.14069619E-03
14  5 4.70082703E-02 8.72276144E-04 6.16138456E-05-2.43285308E-04-3.58457109E-05
14  6 1.92652275E-04-2.57972747E-04
15  1 9.03075692E-02 8.74924847E-02-3.84868579E-01 1.09662804E-03-4.97067109E-04
15  2-4.88854251E-04-1.96888899E-03 1.61267931E-03 2.89895219E-03 2.32764853E-06
15  3-6.24904469E-04 1.99996432E-05-1.03407266E-01-9.45591464E-02 4.03609108E-01
15  4 1.38824141E-02 1.32050224E-02-2.24880526E-02 1.53591718E-03-6.31093616E-03
15  5 1.15938253E-03-5.14790594E-04-4.49678198E-04 2.15481005E-04-9.33969594E-04
15  6 1.31567330E-04-5.74306890E-05
16  1-1.88300690E-01-1.10184165E-01-1.42350948E-01-1.31482851E-02-1.39463901E-02
16  2-2.18417447E-02-6.48909054E-03 4.92515058E-04-6.74206605E-04-5.17091127E-03
16  3-3.74168541E-03 1.00921534E-03 8.55620961E-03 8.73671886E-03 1.38824141E-02
16  4 2.00242558E-01 1.08394530E-01 1.43849191E-01 5.18234505E-03 8.61104614E-03
16  5 7.49221676E-03-4.61585285E-05 5.36459154E-04 1.11936602E-04-8.25912633E-04
16  6 1.10084863E-03-1.47807256E-03
17  1-9.69481510E-02-1.66694785E-01-1.10886465E-01 5.27760198E-03 7.78668842E-03
17  2 8.08965182E-03 2.97365554E-03-9.39243656E-04 1.52711019E-04-3.42446686E-04
17  3 1.10684198E-03 5.89193423E-04 9.36653564E-03 8.94731222E-03 1.32050224E-02
17  4 1.08394530E-01 1.66568506E-01 1.24465264E-01-2.89807908E-02-1.63880560E-02
17  5-3.61415623E-02-7.80417217E-05 2.97506799E-05-3.22511924E-05 3.37109615E-04
17  6-4.16928951E-04 5.58383084E-04
18  1-1.26405668E-01-1.11309141E-01-2.33346394E-01 3.43371994E-03 5.56266369E-03
18  2 9.49749624E-03 7.72790838E-04-5.13455624E-04 8.77817613E-04 1.75776680E-03
18  3 9.31071699E-04-4.80504329E-04-2.80581457E-02-2.70922669E-02-2.24880526E-02
18  4 1.43849191E-01 1.24465264E-01 2.38661518E-01 4.74684598E-03 7.99541767E-03
18  5 6.80110084E-03 2.14032291E-04-1.89964543E-04-4.42734474E-05-3.10544317E-04
18  6 1.50420431E-04 5.21310287E-04
19  1-7.96636790E-02 8.15564912E-02-1.28100270E-02-3.09901430E-03 3.56943828E-02
19  2-3.46533481E-03-2.43640801E-03 4.40146248E-04 2.02482784E-03-1.86599955E-03
19  3-5.28922787E-03-8.18148349E-04 2.16569270E-03-1.56524370E-02 1.53591718E-03
19  4 5.18234505E-03-2.89807908E-02 4.74684598E-03 8.01997464E-02-6.80280065E-02
19  5 9.92125525E-03 2.82902136E-04 2.17933853E-05 2.03472217E-04-7.65626783E-04
19  6 2.37762099E-04-1.33889450E-03
20  1 6.09869559E-02-4.36728136E-01 4.35523324E-02-1.03935135E-03-2.34688874E-03
20  2 8.18944210E-06-2.80581811E-04-3.47532643E-04-5.64802103E-04-4.02309495E-03
20  3 3.36457549E-03 1.15250202E-03 3.78669584E-03-4.14069619E-03-6.31093616E-03
20  4 8.61104614E-03-1.63880560E-02 7.99541767E-03-6.80280065E-02 4.56095940E-01
20  5-4.55784265E-02-1.83082687E-04 3.67729314E-04-1.48680257E-04 1.69404968E-04
20  6 1.23091220E-04-1.05613635E-04
21  1-9.17401602E-03 3.89475382E-02-8.46825098E-02 1.34169960E-03-4.23814394E-03
21  2 6.76403694E-04-2.40319385E-04-5.85602278E-04-6.34603826E-04 1.28465862E-03
21  3 1.15276777E-03 8.45105467E-04-1.02619714E-02 4.70082703E-02 1.15938253E-03
21  4 7.49221676E-03-3.61415623E-02 6.80110084E-03 9.92125525E-03-4.55784265E-02
21  5 7.54547004E-02-1.11196925E-04-4.44097183E-04 1.32087189E-04-2.52330934E-04
21  6-1.20714703E-04 2.48400661E-04
22  1 4.15734482E-05 8.41618159E-04 1.07701341E-04 6.70893316E-03 1.05341496E-02
22  2-1.48511272E-03-1.72535528E-01-1.39097827E-01 3.12183812E-02 2.51886661E-03
22  3 5.06346954E-03-2.49709835E-03-1.02324288E-03 8.72276144E-04-5.14790594E-04
22  4-4.61585285E-05-7.80417217E-05 2.14032291E-04 2.82902136E-04-1.83082687E-04
22  5-1.11196925E-04 1.86985196E-01 1.83966694E-01-3.92337634E-02-2.29325086E-02
22  6-6.19192077E-02 1.23018974E-02
23  1 2.23912813E-04 5.44528445E-04-3.03880056E-04-1.11200685E-02-9.69553548E-03
23  2-1.48921800E-02-2.01455839E-01-3.96816540E-01 1.28158938E-01 5.61671112E-04
23  3-3.42608462E-03 6.22078407E-03 1.02698607E-03 6.16138456E-05-4.49678198E-04
23  4 5.36459154E-04 2.97506799E-05-1.89964543E-04 2.17933853E-05 3.67729314E-04
23  5-4.44097183E-04 1.83966694E-01 3.99130883E-01-1.05992272E-01 2.62383802E-02
23  6 9.80385297E-03-1.21079380E-02
24  1 4.50565889E-04 1.25138244E-04 9.44287155E-04 2.20908962E-02 3.72466653E-02
24  2-8.65731487E-03 1.18061738E-02 5.87262842E-02-5.66424384E-02-1.05899175E-03
24  3 2.81292107E-03-6.85641619E-03 6.62952747E-04-2.43285308E-04 2.15481005E-04
24  4 1.11936602E-04-3.22511924E-05-4.42734474E-05 2.03472217E-04-1.48680257E-04
24  5 1.32087189E-04-3.92337634E-02-1.05992272E-01 7.54168669E-02 4.96685422E-03
24  6 7.50565038E-03-4.50814146E-03
25  1-1.68507668E-03 1.91012066E-03-5.32315880E-03-1.09671651E-02 2.53440267E-03
25  2 1.32281260E-02-4.60556563E-01 8.98452237E-02 5.30679131E-02 1.44400533E-03
25  3 1.05690159E-03-3.10198381E-04 1.09779347E-03-3.58457109E-05-9.33969594E-04
25  4-8.25912633E-04 3.37109615E-04-3.10544317E-04-7.65626783E-04 1.69404968E-04
25  5-2.52330934E-04-2.29325086E-02 2.62383802E-02 4.96685422E-03 4.95191027E-01
25  6-1.22055815E-01-6.41326427E-02
26  1 3.35491326E-03 1.11668400E-03 3.51718083E-03 7.52581098E-03-9.47424090E-04
26  2-8.07421007E-03 1.74489805E-01-1.11174223E-01 6.79539332E-05-2.15985319E-03
26  3-2.75168405E-03-4.88739162E-04-5.74246130E-04 1.92652275E-04 1.31567330E-04
26  4 1.10084863E-03-4.16928951E-04 1.50420431E-04 2.37762099E-04 1.23091220E-04
26  5-1.20714703E-04-6.19192077E-02 9.80385297E-03 7.50565038E-03-1.22055815E-01
26  6 1.04054113E-01-2.68963379E-03
27  1-5.22069563E-03 3.67734239E-03-9.29273229E-03-4.71380220E-02 1.10979976E-02
27  2 9.76456283E-03 1.06310449E-01 6.66455795E-04-7.30970381E-02 2.71648016E-04
27  3-8.38984544E-04 4.62637908E-04 4.24270889E-04-2.57972747E-04-5.74306890E-05
27  4-1.47807256E-03 5.58383084E-04 5.21310287E-04-1.33889450E-03-1.05613635E-04
27  5 2.48400661E-04 1.23018974E-02-1.21079380E-02-4.50814146E-03-6.41326427E-02
27  6-2.68963379E-03 7.59581318E-02
 $END